40
    91    65    21    44    64    45    59    76    91    35    83    15    30    77   100    64    64    66    96    34     6    48    35    34    95    25    58    80   100    49    87    89    18    28    17    82    73    21    27    83
     7     4     5     1     8     4     6     9     3     1     7    10     6     6     4     6     6     9     1    10     5     6     1     5     8     6     2     8     3     6     6     3     4     9     9     8     3     4     9    10
   930  1059  1244  1337  1643  1557   941  1854  1158  1123  1435  1016  1771  1883   960  1119  1116  1010  1800  1102  1580  1245   959  1274  1313  1648  1962  1911   917  1313  1434  1166  1276  1021   904  1845   695  1499  1562  1137
